solution status: time limit reached
objective value:                          34201.64968
y#14                                                1 	(obj:5700)
y#17                                                1 	(obj:5700)
y#24                                                1 	(obj:5700)
y#26                                                1 	(obj:5700)
y#42                                                1 	(obj:5700)
y#52                                                1 	(obj:5700)
x#1#24                                              1 	(obj:0.00357)
x#2#14                                              1 	(obj:0.01666)
x#3#26                                              1 	(obj:0.0561)
x#4#17                                              1 	(obj:0.03043)
x#5#14                                              1 	(obj:0.01479)
x#6#52                                              1 	(obj:0.02618)
x#7#26                                              1 	(obj:0.04556)
x#8#26                                              1 	(obj:0.04454)
x#9#17                                              1 	(obj:0.02703)
x#10#42                                             1 	(obj:0.01802)
x#11#26                                             1 	(obj:0.0102)
x#12#26                                             1 	(obj:0.017)
x#13#14                                             1 	(obj:0.03434)
x#14#52                                             1 	(obj:0.0034)
x#15#14                                             1 	(obj:0.02023)
x#16#24                                             1 	(obj:0.01207)
x#17#17                                             1 	(obj:0.04148)
x#18#14                                             1 	(obj:0.02567)
x#19#17                                             1 	(obj:0.03349)
x#20#17                                             1 	(obj:0.02924)
x#21#52                                             1 	(obj:0.06834)
x#22#26                                             1 	(obj:0.0119)
x#23#42                                             1 	(obj:0.03196)
x#24#24                                             1 	(obj:0.02533)
x#25#17                                             1 	(obj:0.02278)
x#26#24                                             1 	(obj:0.01802)
x#27#26                                             1 	(obj:0.01156)
x#28#42                                             1 	(obj:0.01139)
x#29#24                                             1 	(obj:0.01734)
x#30#52                                             1 	(obj:0.00748)
x#31#26                                             1 	(obj:0.04182)
x#32#26                                             1 	(obj:0.02601)
x#33#24                                             1 	(obj:0.03553)
x#34#42                                             1 	(obj:0.04114)
x#35#17                                             1 	(obj:0.00663)
x#36#24                                             1 	(obj:0.02652)
x#37#17                                             1 	(obj:0.05236)
x#38#17                                             1 	(obj:0.07412)
x#39#42                                             1 	(obj:0.02329)
x#40#14                                             1 	(obj:0.04505)
x#41#26                                             1 	(obj:0.00901)
x#42#24                                             1 	(obj:0.01751)
x#43#52                                             1 	(obj:0.05729)
x#44#24                                             1 	(obj:0.03893)
x#45#24                                             1 	(obj:0.00901)
x#46#42                                             1 	(obj:0.04199)
x#47#14                                             1 	(obj:0.04573)
x#48#52                                             1 	(obj:0.02159)
x#49#14                                             1 	(obj:0.03604)
x#50#52                                             1 	(obj:0.0323)
x#51#24                                             1 	(obj:0.01547)
x#52#52                                             1 	(obj:0.03077)
x#53#52                                             1 	(obj:0.03604)
x#54#17                                             1 	(obj:0.02941)
x#55#26                                             1 	(obj:0.0085)
x#56#14                                             1 	(obj:0.03383)
x#57#52                                             1 	(obj:0.03026)
x#58#17                                             1 	(obj:0.01445)
x#59#17                                             1 	(obj:0.02329)
x#60#52                                             1 	(obj:0.00969)
